data/benchmarks/bayes/75-14-5-q.cnf
p cnf 924 893
c weights 0.753133 0.24686699999999995 1 1 1 1 1 1 1 1 1 1 1 1 1 1 1 1 1 1 1 1 1 1 1 1 1 1 1 1 1 1 1 1 1 1 1 1 1 1 1 1 1 1 1 1 1 1 1 1 1 1 1 1 1 1 1 1 1 1 1 1 1 1 1 1 1 1 1 1 1 1 1 1 1 1 1 1 1 1 1 1 1 1 1 1 1 1 1 1 1 1 1 1 1 1 1 1 1 1 1 1 1 1 1 1 1 1 1 1 1 1 1 1 1 1 1 1 1 1 1 1 1 1 1 1 1 1 1 1 1 1 1 1 1 1 1 1 1 1 1 1 1 1 1 1 1 1 1 1 1 1 1 1 1 1 1 1 1 1 1 1 1 1 1 1 1 1 1 1 1 1 1 1 1 1 1 1 1 1 1 1 1 1 1 1 1 1 1 1 1 1 1 1 1 1 1 1 1 1 1 1 1 1 1 1 1 1 1 1 1 1 1 1 1 1 1 1 1 1 1 1 1 1 1 1 1 1 1 1 1 1 1 1 1 1 1 1 1 1 1 1 1 1 1 1 1 1 1 1 1 1 1 1 1 1 1 1 1 1 1 1 1 1 1 1 1 1 1 1 1 1 1 1 1 1 1 1 1 1 1 1 1 1 1 1 1 1 1 1 1 1 1 1 1 1 1 1 1 1 1 1 1 1 1 1 1 1 1 1 1 1 1 1 1 1 1 1 1 1 1 1 1 1 1 1 1 1 1 1 1 1 1 1 1 1 1 1 1 1 1 1 1 1 1 1 1 1 1 1 1 1 1 1 1 1 1 1 1 1 1 1 1 1 1 1 1 1 1 1 1 1 1 1 1 1 1 1 1 1 1 1 1 1 1 1 1 1 1 1 1 1 0.319935 0.6800649999999999 0.869379 0.130621 0.5 0.5 0.5 0.5 0.5 0.5 0.5 0.5 0.5 0.5 0.5 0.5 0.173233 0.826767 0.442299 0.557701 0.5 0.5 0.5 0.5 0.5 0.5 0.5 0.5 0.010749 0.989251 0.992886 0.007113999999999954 0.5 0.5 0.5 0.5 0.5 0.5 0.5 0.5 0.5 0.5 0.5 0.5 0.737923 0.262077 0.47553 0.52447 0.5 0.5 0.5 0.5 0.5 0.5 0.5 0.5 0.5 0.5 0.5 0.5 0.5 0.5 0.5 0.5 0.5 0.5 0.5 0.5 0.5 0.5 0.5 0.5 0.5 0.5 0.5 0.5 0.5 0.5 0.5 0.5 0.5 0.5 0.5 0.5 0.5 0.5 0.5 0.5 0.1782 0.8218 0.862123 0.13787700000000003 0.245335 0.754665 0.989372 0.01062799999999997 0.5 0.5 0.5 0.5 0.5 0.5 0.5 0.5 0.5 0.5 0.5 0.5 0.5 0.5 0.5 0.5 0.5 0.5 0.5 0.5 0.5 0.5 0.5 0.5 0.5 0.5 0.5 0.5 0.5 0.5 0.5 0.5 0.5 0.5 0.5 0.5 0.5 0.5 0.5 0.5 0.637633 0.362367 0.255622 0.744378 0.130407 0.8695930000000001 0.627005 0.37299499999999997 0.851272 0.14872799999999997 0.180154 0.819846 0.377053 0.6229469999999999 0.8008 0.19920000000000004 0.5 0.5 0.5 0.5 0.5 0.5 0.5 0.5 0.5 0.5 0.5 0.5 0.494667 0.505333 0.392562 0.6074379999999999 0.348548 0.6514519999999999 0.695198 0.304802 0.5 0.5 0.5 0.5 0.5 0.5 0.5 0.5 0.5 0.5 0.5 0.5 0.5 0.5 0.5 0.5 0.5 0.5 0.5 0.5 0.5 0.5 0.5 0.5 0.5 0.5 0.5 0.5 0.5 0.5 0.5 0.5 0.198791 0.8012090000000001 0.985028 0.014971999999999985 0.914615 0.08538500000000004 0.225281 0.7747189999999999 0.5 0.5 0.5 0.5 0.5 0.5 0.5 0.5 0.5 0.5 0.5 0.5 0.5 0.5 0.5 0.5 0.921193 0.07880699999999996 0.696616 0.303384 0.174623 0.825377 0.0491817 0.9508183 0.5 0.5 0.5 0.5 0.5 0.5 0.5 0.5 0.5 0.5 0.5 0.5 0.5 0.5 0.5 0.5 0.5 0.5 0.5 0.5 0.5 0.5 0.5 0.5 0.5 0.5 0.5 0.5 0.5 0.5 0.5 0.5 0.5 0.5 0.5 0.5 0.5 0.5 0.5 0.5 0.5 0.5 0.5 0.5 0.5 0.5 0.5 0.5 0.5 0.5 0.5 0.5 0.5 0.5 0.5 0.5 0.5 0.5 0.5 0.5 0.5 0.5 0.5 0.5 0.5 0.5 0.5 0.5 0.5 0.5 0.5 0.5 0.5 0.5 0.5 0.5 0.5 0.5 0.5 0.5 0.5 0.5 0.5 0.5 0.5 0.5 0.5 0.5 0.5 0.5 0.5 0.5 0.5 0.5 0.5 0.5 0.5 0.5 0.5 0.5 0.5 0.5 0.5 0.5 0.5 0.5 0.5 0.5 0.5 0.5 0.5 0.5 0.5 0.5 0.5 0.5 0.5 0.5 0.5 0.5 0.5 0.5 0.5 0.5 0.50445 0.49555000000000005 0.391466 0.608534 0.447427 0.552573 0.387901 0.612099 0.5 0.5 0.5 0.5 0.5 0.5 0.5 0.5 0.307836 0.692164 0.703092 0.29690799999999995 0.5 0.5 0.5 0.5 0.5 0.5 0.5 0.5 0.414948 0.585052 0.039957 0.960043 0.073737 0.9262630000000001 0.684944 0.315056 0.5 0.5 0.5 0.5 0.5 0.5 0.5 0.5 0.5 0.5 0.5 0.5 0.5 0.5 0.5 0.5 0.5 0.5 0.5 0.5 0.5 0.5 0.5 0.5 0.904977 0.09502299999999997 0.610958 0.389042 0.768249 0.23175100000000004 0.212813 0.787187 0.5 0.5 0.5 0.5 0.5 0.5 0.5 0.5 0.5 0.5 0.5 0.5 0.5 0.5 0.5 0.5 0.5 0.5 0.5 0.5 0.5 0.5 0.5 0.5 0.5 0.5 0.5 0.5 0.5 0.5 0.5 0.5 0.5 0.5 0.5 0.5 0.5 0.5 0.5 0.5 0.5 0.5 0.5 0.5 0.5 0.5 0.5 0.5 0.5 0.5 0.5 0.5 0.5 0.5 0.5 0.5 0.5 0.5 0.5 0.5 0.5 0.5 0.5 0.5 0.5 0.5 0.5 0.5 0.90703 0.09297 0.325532 0.6744680000000001 0.563248 0.43675200000000003 0.139638 0.860362 0.5 0.5 0.5 0.5 0.5 0.5 0.5 0.5 0.908967 0.09103300000000003 0.742488 0.25751199999999996 0.467624 0.532376 0.295222 0.704778 0.5 0.5 0.5 0.5 0.5 0.5 0.5 0.5 0.5 0.5 0.5 0.5 0.5 0.5 0.5 0.5 0.5 0.5 0.5 0.5 0.5 0.5 0.5 0.5 0.760962 0.23903799999999997 0.0114352 0.9885648 0.504142 0.495858 0.9006 0.09940000000000004 0.5 0.5 0.5 0.5 0.5 0.5 0.5 0.5 0.5 0.5 0.5 0.5 0.5 0.5 0.5 0.5 0.0416814 0.9583186 0.657047 0.34295299999999995 0.638024 0.36197599999999996 0.681447 0.318553 0.5 0.5 0.5 0.5 0.5 0.5 0.5 0.5 0.5 0.5 0.5 0.5 0.5 0.5 0.5 0.5 0.5 0.5 0.5 0.5 0.5 0.5 0.5 0.5 0.5 0.5 0.5 0.5 0.5 0.5 0.5 0.5 0.5 0.5 0.5 0.5 0.5 0.5 0.5 0.5 0.5 0.5 0.5 0.5 0.5 0.5 0.5 0.5 0.5 0.5 0.5 0.5 0.0275386 0.9724614 0.27161 0.72839 0.931736 0.06826399999999999 0.535695 0.46430499999999997 0.5 0.5 0.5 0.5 0.5 0.5 0.5 0.5 0.5 0.5 0.5 0.5 0.5 0.5 0.5 0.5 0.5 0.5 0.5 0.5 0.5 0.5 0.5 0.5 0.5 0.5 0.5 0.5 0.5 0.5 0.5 0.5 0.154277 0.845723 0.441463 0.5585370000000001 0.278446 0.721554 0.759907 0.240093 0.5 0.5 0.5 0.5 0.5 0.5 0.5 0.5 0.5 0.5 0.5 0.5 0.5 0.5 0.5 0.5 0.5 0.5 0.5 0.5 0.5 0.5 0.5 0.5 0.5 0.5 0.5 0.5 0.5 0.5 0.5 0.5 0.5 0.5 0.5 0.5 0.5 0.5 0.5 0.5 0.5 0.5 0.5 0.5 0.5 0.5 0.5 0.5 0.5 0.5 0.5 0.5 0.5 0.5 0.5 0.5 0.5 0.5 0.5 0.5 0.5 0.5 0.5 0.5 0.5 0.5 0.5 0.5 0.5 0.5 0.5 0.5 0.5 0.5 0.5 0.5 0.553453 0.446547 0.0332738 0.9667262 0.600217 0.399783 0.877892 0.122108 0.5 0.5 0.5 0.5 0.5 0.5 0.5 0.5 0.762884 0.237116 0.275142 0.724858 0.608047 0.391953 0.0275663 0.9724337 0.5 0.5 0.5 0.5 0.5 0.5 0.5 0.5 0.5 0.5 0.5 0.5 0.5 0.5 0.5 0.5 0.5 0.5 0.5 0.5 0.5 0.5 0.5 0.5 0.5 0.5 0.5 0.5 0.5 0.5 0.5 0.5 0.5 0.5 0.5 0.5 0.5 0.5 0.5 0.5 0.5 0.5 0.5 0.5 0.45963 0.54037 0.376615 0.6233850000000001 0.176997 0.823003 0.656539 0.343461 0.5 0.5 0.5 0.5 0.5 0.5 0.5 0.5 0.5 0.5 0.5 0.5 0.5 0.5 0.5 0.5 0.901297 0.09870299999999999 0.822454 0.17754599999999998 0.0435027 0.9564973 0.064665 0.935335 0.5 0.5 0.5 0.5 0.5 0.5 0.5 0.5 0.5 0.5 0.5 0.5 0.5 0.5 0.5 0.5 0.5 0.5 0.5 0.5 0.5 0.5 0.5 0.5 0.5 0.5 0.5 0.5 0.5 0.5 0.5 0.5 0.5 0.5 0.5 0.5 0.5 0.5 0.5 0.5 0.5 0.5 0.5 0.5 0.5 0.5 0.5 0.5 0.5 0.5 0.5 0.5 0.5 0.5 0.5 0.5 0.182139 0.817861 0.803831 0.19616900000000004 0.32864 0.67136 0.582894 0.417106 0.5 0.5 0.5 0.5 0.5 0.5 0.5 0.5 0.5 0.5 0.5 0.5 0.5 0.5 0.5 0.5 0.5 0.5 0.5 0.5 0.5 0.5 0.5 0.5 0.5 0.5 0.5 0.5 0.5 0.5 0.5 0.5 0.5 0.5 0.5 0.5 0.5 0.5 0.5 0.5 0.5 0.5 0.5 0.5 0.5 0.5 0.5 0.5 0.5 0.5 0.5 0.5 0.5 0.5 0.5 0.5 0.5 0.5 0.5 0.5 0.5 0.5 0.5 0.5 0.5 0.5 0.5 0.5 0.5 0.5 0.5 0.5 0.5 0.5 0.5 0.5 0.578856 0.42114399999999996 0.809514 0.19048600000000004 0.00874247 0.99125753 0.165058 0.834942 0.856418 0.143582 0.384228 0.615772 0.215844 0.784156 0.482298 0.517702 0.413691 0.586309 0.436818 0.5631820000000001 0.769737 0.230263 0.186546 0.813454 0.5 0.5 0.5 0.5 0.5 0.5 0.5 0.5 0.5 0.5 0.5 0.5 0.5 0.5 0.5 0.5 0.5 0.5 0.5 0.5 0.5 0.5 0.5 0.5 0.5 0.5 0.5 0.5 0.699662 0.300338 0.863437 0.136563 0.94676 0.053239999999999954 0.521489 0.478511 0.5 0.5 0.5 0.5 0.5 0.5 0.5 0.5 0.5 0.5 0.5 0.5 0.5 0.5 0.5 0.5 0.5 0.5 0.5 0.5 0.5 0.5 0.5 0.5 0.5 0.5 0.5 0.5 0.5 0.5 0.5 0.5 0.5 0.5 0.5 0.5 0.5 0.5 0.5 0.5 0.5 0.5 0.5 0.5 0.5 0.5 0.5 0.5 0.5 0.5 0.5 0.5 0.5 0.5 0.5 0.5 0.5 0.5 0.5 0.5 0.5 0.5 0.5 0.5 0.5 0.5 0.5 0.5 0.5 0.5 0.5 0.5 0.930891 0.06910899999999998 0.806572 0.19342800000000004 0.320985 0.6790149999999999 0.192123 0.807877 0.38579 0.6142099999999999 0.439281 0.560719 0.5 0.5 0.5 0.5 0.5 0.5 0.5 0.5 0.5 0.5 0.5 0.5 0.5 0.5 0.5 0.5 0.5 0.5 0.5 0.5 0.5 0.5 0.5 0.5 0.423241 0.576759 0.973189 0.02681100000000003 0.381879 0.6181209999999999 0.470581 0.529419 0.185268 0.814732 0.401472 0.598528 0.637376 0.36262399999999995 0.506253 0.49374700000000005 0.5 0.5 0.5 0.5 0.5 0.5 0.5 0.5 0.5 0.5 0.5 0.5 0.5 0.5 0.5 0.5 0.5 0.5 0.5 0.5 0.5 0.5 0.5 0.5 0.5 0.5 0.5 0.5 0.5 0.5 0.5 0.5 0.232546 0.767454 0.158428 0.841572 0.133733 0.866267 0.703127 0.29687300000000005 0.319001 0.680999 0.104599 0.895401 0.626608 0.37339199999999995 0.825254 0.17474599999999996 0.5 0.5 0.5 0.5 0.5 0.5 0.5 0.5 0.5 0.5 0.5 0.5 0.5 0.5 0.5 0.5 0.5 0.5 0.5 0.5 0.0623219 0.9376781 0.00836651 0.99163349 0.733163 0.266837 0.696174 0.30382600000000004 0.542468 0.45753200000000005 0.881413 0.118587 0.716212 0.28378800000000004 0.775013 0.22498700000000005 0.5 0.5 0.5 0.5 0.5 0.5 0.5 0.5 0.5 0.5 0.5 0.5 0.5 0.5 0.5 0.5 0.5 0.5 0.5 0.5 0.5 0.5 0.5 0.5 0.5 0.5 0.5 0.5 0.5 0.5 0.5 0.5 0.5 0.5 0.5 0.5 0.5 0.5 0.5 0.5 0.5 0.5 0.5 0.5 0.5 0.5 0.5 0.5 0.5 0.5 0.5 0.5 0.5 0.5 0.5 0.5 0.5 0.5 0.5 0.5 0.5 0.5 0.5 0.5 0.00198575 0.99801425 0.940947 0.05905300000000002 0.435203 0.564797 0.319068 0.680932 0.5 0.5 0.5 0.5 0.5 0.5 0.5 0.5 0.5 0.5 0.5 0.5 0.5 0.5 0.5 0.5 0.5 0.5 0.5 0.5 0.5 0.5 0.5 0.5 0.5 0.5 0.5 0.5 0.5 0.5 0.5 0.5 0.5 0.5 0.5 0.5 0.5 0.5 0.5 0.5 0.5 0.5 0.5 0.5 0.369939 0.630061 0.843722 0.15627800000000003 0.510345 0.48965499999999995 0.644947 0.35505299999999995 0.758138 0.24186200000000002 0.337585 0.662415 0.24714 0.75286 0.603456 0.396544 0.5 0.5 0.5 0.5 0.5 0.5 0.5 0.5 0.265147 0.734853 0.21249 0.7875099999999999 0.52595 0.47404999999999997 0.768781 0.23121899999999995 0.5 0.5 0.5 0.5 0.5 0.5 0.5 0.5 0.503653 0.496347 0.404941 0.595059 0.762073 0.237927 0.43839 0.5616099999999999 0.654009 0.34599100000000005 0.808329 0.19167100000000004 0.773316 0.226684 0.164354 0.835646 0.5 0.5 0.5 0.5 0.5 0.5 0.5 0.5 0.5 0.5 0.5 0.5 0.5 0.5 0.5 0.5 0.134031 0.865969 0.425075 0.574925 0.176099 0.823901 0.659981 0.34001899999999996
-1 -197 2 0
-1 197 -2 0
1 -198 2 0
1 198 -2 0
-2 3 0
2 -3 0
-3 4 0
3 -4 0
-4 -5 0
4 5 0
-5 -205 6 0
-5 205 -6 0
5 -206 6 0
5 206 -6 0
-6 -7 0
6 7 0
-7 -8 0
7 8 0
-8 -211 9 0
-8 211 -9 0
8 -212 9 0
8 212 -9 0
-9 -10 0
9 10 0
-10 -11 0
10 11 0
-11 12 0
11 -12 0
-12 -219 13 0
-12 219 -13 0
12 -220 13 0
12 220 -13 0
-13 -14 0
13 14 0
-1 15 0
1 -15 0
-15 -2 16 0
-15 2 -16 0
15 -2 -16 0
15 2 -16 0
-16 -3 -17 0
-16 3 -17 0
16 -3 17 0
16 3 17 0
-17 -4 18 0
-17 4 18 0
17 -4 -18 0
17 4 18 0
-18 -5 19 0
-18 5 -19 0
18 -5 -19 0
18 5 19 0
-19 -6 -241 20 0
-19 -6 241 -20 0
-19 6 -242 20 0
-19 6 242 -20 0
19 -6 -243 20 0
19 -6 243 -20 0
19 6 -244 20 0
19 6 244 -20 0
-20 -7 21 0
-20 7 21 0
20 -7 21 0
20 7 -21 0
-21 -8 -22 0
-21 8 22 0
21 -8 -22 0
21 8 22 0
-22 -9 23 0
-22 9 23 0
22 -9 -23 0
22 9 23 0
-23 -10 -24 0
-23 10 -24 0
23 -10 24 0
23 10 -24 0
-24 -11 -25 0
-24 11 -25 0
24 -11 -25 0
24 11 25 0
-25 -12 -265 26 0
-25 -12 265 -26 0
-25 12 -266 26 0
-25 12 266 -26 0
25 -12 -267 26 0
25 -12 267 -26 0
25 12 -268 26 0
25 12 268 -26 0
-26 -13 -269 27 0
-26 -13 269 -27 0
-26 13 -270 27 0
-26 13 270 -27 0
26 -13 -271 27 0
26 -13 271 -27 0
26 13 -272 27 0
26 13 272 -27 0
-27 -14 28 0
-27 14 -28 0
27 -14 -28 0
27 14 -28 0
-15 29 0
15 -29 0
-29 -16 -279 30 0
-29 -16 279 -30 0
-29 16 -280 30 0
-29 16 280 -30 0
29 -16 -281 30 0
29 -16 281 -30 0
29 16 -282 30 0
29 16 282 -30 0
-30 -17 -31 0
-30 17 31 0
30 -17 31 0
30 17 31 0
-31 -18 32 0
-31 18 32 0
31 -18 -32 0
31 18 32 0
-32 -19 33 0
-32 19 33 0
32 -19 33 0
32 19 -33 0
-33 -20 34 0
-33 20 34 0
33 -20 -34 0
33 20 34 0
-34 -21 -299 35 0
-34 -21 299 -35 0
-34 21 -300 35 0
-34 21 300 -35 0
34 -21 -301 35 0
34 -21 301 -35 0
34 21 -302 35 0
34 21 302 -35 0
-35 -22 36 0
-35 22 -36 0
35 -22 36 0
35 22 -36 0
-36 -23 -37 0
-36 23 37 0
36 -23 -37 0
36 23 37 0
-37 -24 -311 38 0
-37 -24 311 -38 0
-37 24 -312 38 0
-37 24 312 -38 0
37 -24 -313 38 0
37 -24 313 -38 0
37 24 -314 38 0
37 24 314 -38 0
-38 -25 39 0
-38 25 -39 0
38 -25 -39 0
38 25 -39 0
-39 -26 40 0
-39 26 40 0
39 -26 -40 0
39 26 40 0
-40 -27 41 0
-40 27 41 0
40 -27 -41 0
40 27 41 0
-41 -28 -42 0
-41 28 -42 0
41 -28 42 0
41 28 -42 0
-29 43 0
29 -43 0
-43 -30 44 0
-43 30 -44 0
43 -30 44 0
43 30 -44 0
-44 -31 45 0
-44 31 -45 0
44 -31 -45 0
44 31 -45 0
-45 -32 -46 0
-45 32 46 0
45 -32 46 0
45 32 46 0
-46 -33 -47 0
-46 33 -47 0
46 -33 47 0
46 33 47 0
-47 -34 48 0
-47 34 -48 0
47 -34 -48 0
47 34 -48 0
-48 -35 49 0
-48 35 49 0
48 -35 -49 0
48 35 -49 0
-49 -36 50 0
-49 36 -50 0
49 -36 -50 0
49 36 -50 0
-50 -37 51 0
-50 37 -51 0
50 -37 51 0
50 37 51 0
-51 -38 52 0
-51 38 -52 0
51 -38 -52 0
51 38 52 0
-52 -39 -53 0
-52 39 53 0
52 -39 -53 0
52 39 53 0
-53 -40 -54 0
-53 40 -54 0
53 -40 54 0
53 40 54 0
-54 -41 -377 55 0
-54 -41 377 -55 0
-54 41 -378 55 0
-54 41 378 -55 0
54 -41 -379 55 0
54 -41 379 -55 0
54 41 -380 55 0
54 41 380 -55 0
-55 -42 -56 0
-55 42 56 0
55 -42 56 0
55 42 -56 0
-43 -385 57 0
-43 385 -57 0
43 -386 57 0
43 386 -57 0
-57 -44 58 0
-57 44 -58 0
57 -44 -58 0
57 44 58 0
-58 -45 -391 59 0
-58 -45 391 -59 0
-58 45 -392 59 0
-58 45 392 -59 0
58 -45 -393 59 0
58 -45 393 -59 0
58 45 -394 59 0
58 45 394 -59 0
-59 -46 -60 0
-59 46 60 0
59 -46 60 0
59 46 -60 0
-60 -47 -61 0
-60 47 61 0
60 -47 -61 0
60 47 -61 0
-61 -48 62 0
-61 48 -62 0
61 -48 62 0
61 48 62 0
-62 -49 -407 63 0
-62 -49 407 -63 0
-62 49 -408 63 0
-62 49 408 -63 0
62 -49 -409 63 0
62 -49 409 -63 0
62 49 -410 63 0
62 49 410 -63 0
-63 -50 64 0
-63 50 -64 0
63 -50 64 0
63 50 64 0
-64 -51 -65 0
-64 51 65 0
64 -51 65 0
64 51 -65 0
-65 -52 66 0
-65 52 -66 0
65 -52 -66 0
65 52 -66 0
-66 -53 -67 0
-66 53 -67 0
66 -53 -67 0
66 53 67 0
-67 -54 68 0
-67 54 -68 0
67 -54 68 0
67 54 68 0
-68 -55 -69 0
-68 55 69 0
68 -55 -69 0
68 55 69 0
-69 -56 70 0
-69 56 -70 0
69 -56 70 0
69 56 -70 0
-57 -71 0
57 71 0
-71 -58 -72 0
-71 58 72 0
71 -58 72 0
71 58 -72 0
-72 -59 -445 73 0
-72 -59 445 -73 0
-72 59 -446 73 0
-72 59 446 -73 0
72 -59 -447 73 0
72 -59 447 -73 0
72 59 -448 73 0
72 59 448 -73 0
-73 -60 74 0
-73 60 -74 0
73 -60 -74 0
73 60 74 0
-74 -61 -453 75 0
-74 -61 453 -75 0
-74 61 -454 75 0
-74 61 454 -75 0
74 -61 -455 75 0
74 -61 455 -75 0
74 61 -456 75 0
74 61 456 -75 0
-75 -62 -76 0
-75 62 76 0
75 -62 76 0
75 62 -76 0
-76 -63 77 0
-76 63 77 0
76 -63 77 0
76 63 -77 0
-77 -64 78 0
-77 64 -78 0
77 -64 -78 0
77 64 78 0
-78 -65 -469 79 0
-78 -65 469 -79 0
-78 65 -470 79 0
-78 65 470 -79 0
78 -65 -471 79 0
78 -65 471 -79 0
78 65 -472 79 0
78 65 472 -79 0
-79 -66 80 0
-79 66 80 0
79 -66 80 0
79 66 -80 0
-80 -67 -81 0
-80 67 -81 0
80 -67 -81 0
80 67 81 0
-81 -68 -481 82 0
-81 -68 481 -82 0
-81 68 -482 82 0
-81 68 482 -82 0
81 -68 -483 82 0
81 -68 483 -82 0
81 68 -484 82 0
81 68 484 -82 0
-82 -69 83 0
-82 69 83 0
82 -69 -83 0
82 69 83 0
-83 -70 84 0
-83 70 -84 0
83 -70 84 0
83 70 84 0
-71 85 0
71 -85 0
-85 -72 -86 0
-85 72 -86 0
85 -72 86 0
85 72 -86 0
-86 -73 -87 0
-86 73 87 0
86 -73 87 0
86 73 87 0
-87 -74 88 0
-87 74 88 0
87 -74 88 0
87 74 -88 0
-88 -75 -89 0
-88 75 89 0
88 -75 -89 0
88 75 -89 0
-89 -76 -511 90 0
-89 -76 511 -90 0
-89 76 -512 90 0
-89 76 512 -90 0
89 -76 -513 90 0
89 -76 513 -90 0
89 76 -514 90 0
89 76 514 -90 0
-90 -77 -91 0
-90 77 91 0
90 -77 91 0
90 77 91 0
-91 -78 92 0
-91 78 -92 0
91 -78 92 0
91 78 92 0
-92 -79 93 0
-92 79 93 0
92 -79 93 0
92 79 -93 0
-93 -80 -94 0
-93 80 94 0
93 -80 -94 0
93 80 -94 0
-94 -81 -531 95 0
-94 -81 531 -95 0
-94 81 -532 95 0
-94 81 532 -95 0
94 -81 -533 95 0
94 -81 533 -95 0
94 81 -534 95 0
94 81 534 -95 0
-95 -82 96 0
-95 82 96 0
95 -82 -96 0
95 82 -96 0
-96 -83 97 0
-96 83 97 0
96 -83 97 0
96 83 -97 0
-97 -84 98 0
-97 84 98 0
97 -84 -98 0
97 84 -98 0
-85 -99 0
85 99 0
-99 -86 -100 0
-99 86 100 0
99 -86 100 0
99 86 100 0
-100 -87 -101 0
-100 87 101 0
100 -87 -101 0
100 87 -101 0
-101 -88 -102 0
-101 88 -102 0
101 -88 102 0
101 88 -102 0
-102 -89 103 0
-102 89 103 0
102 -89 -103 0
102 89 -103 0
-103 -90 -104 0
-103 90 104 0
103 -90 104 0
103 90 104 0
-104 -91 -105 0
-104 91 -105 0
104 -91 105 0
104 91 -105 0
-105 -92 -573 106 0
-105 -92 573 -106 0
-105 92 -574 106 0
-105 92 574 -106 0
105 -92 -575 106 0
105 -92 575 -106 0
105 92 -576 106 0
105 92 576 -106 0
-106 -93 107 0
-106 93 -107 0
106 -93 -107 0
106 93 107 0
-107 -94 -581 108 0
-107 -94 581 -108 0
-107 94 -582 108 0
-107 94 582 -108 0
107 -94 -583 108 0
107 -94 583 -108 0
107 94 -584 108 0
107 94 584 -108 0
-108 -95 109 0
-108 95 -109 0
108 -95 109 0
108 95 109 0
-109 -96 -110 0
-109 96 110 0
109 -96 -110 0
109 96 -110 0
-110 -97 -111 0
-110 97 -111 0
110 -97 111 0
110 97 -111 0
-111 -98 112 0
-111 98 112 0
111 -98 -112 0
111 98 -112 0
-99 113 0
99 -113 0
-113 -100 -114 0
-113 100 -114 0
113 -100 -114 0
113 100 114 0
-114 -101 -607 115 0
-114 -101 607 -115 0
-114 101 -608 115 0
-114 101 608 -115 0
114 -101 -609 115 0
114 -101 609 -115 0
114 101 -610 115 0
114 101 610 -115 0
-115 -102 116 0
-115 102 116 0
115 -102 -116 0
115 102 -116 0
-116 -103 -117 0
-116 103 -117 0
116 -103 117 0
116 103 -117 0
-117 -104 -619 118 0
-117 -104 619 -118 0
-117 104 -620 118 0
-117 104 620 -118 0
117 -104 -621 118 0
117 -104 621 -118 0
117 104 -622 118 0
117 104 622 -118 0
-118 -105 119 0
-118 105 119 0
118 -105 -119 0
118 105 -119 0
-119 -106 -120 0
-119 106 120 0
119 -106 -120 0
119 106 -120 0
-120 -107 121 0
-120 107 -121 0
120 -107 121 0
120 107 -121 0
-121 -108 -122 0
-121 108 122 0
121 -108 122 0
121 108 -122 0
-122 -109 123 0
-122 109 -123 0
122 -109 123 0
122 109 123 0
-123 -110 -124 0
-123 110 -124 0
123 -110 -124 0
123 110 124 0
-124 -111 125 0
-124 111 -125 0
124 -111 -125 0
124 111 -125 0
-125 -112 -651 126 0
-125 -112 651 -126 0
-125 112 -652 126 0
-125 112 652 -126 0
125 -112 -653 126 0
125 -112 653 -126 0
125 112 -654 126 0
125 112 654 -126 0
-113 -127 0
113 127 0
-127 -114 -128 0
-127 114 128 0
127 -114 -128 0
127 114 128 0
-128 -115 129 0
-128 115 -129 0
128 -115 -129 0
128 115 129 0
-129 -116 -130 0
-129 116 -130 0
129 -116 -130 0
129 116 130 0
-130 -117 -131 0
-130 117 131 0
130 -117 -131 0
130 117 -131 0
-131 -118 -132 0
-131 118 -132 0
131 -118 132 0
131 118 132 0
-132 -119 133 0
-132 119 -133 0
132 -119 133 0
132 119 133 0
-133 -120 -134 0
-133 120 134 0
133 -120 134 0
133 120 -134 0
-134 -121 -135 0
-134 121 -135 0
134 -121 -135 0
134 121 135 0
-135 -122 136 0
-135 122 136 0
135 -122 -136 0
135 122 -136 0
-136 -123 -693 137 0
-136 -123 693 -137 0
-136 123 -694 137 0
-136 123 694 -137 0
136 -123 -695 137 0
136 -123 695 -137 0
136 123 -696 137 0
136 123 696 -137 0
-137 -124 -697 138 0
-137 -124 697 -138 0
-137 124 -698 138 0
-137 124 698 -138 0
137 -124 -699 138 0
137 -124 699 -138 0
137 124 -700 138 0
137 124 700 -138 0
-138 -125 -701 139 0
-138 -125 701 -139 0
-138 125 -702 139 0
-138 125 702 -139 0
138 -125 -703 139 0
138 -125 703 -139 0
138 125 -704 139 0
138 125 704 -139 0
-139 -126 140 0
-139 126 -140 0
139 -126 -140 0
139 126 -140 0
-127 -141 0
127 141 0
-141 -128 142 0
-141 128 142 0
141 -128 142 0
141 128 -142 0
-142 -129 -143 0
-142 129 -143 0
142 -129 -143 0
142 129 143 0
-143 -130 -719 144 0
-143 -130 719 -144 0
-143 130 -720 144 0
-143 130 720 -144 0
143 -130 -721 144 0
143 -130 721 -144 0
143 130 -722 144 0
143 130 722 -144 0
-144 -131 145 0
-144 131 145 0
144 -131 -145 0
144 131 145 0
-145 -132 146 0
-145 132 -146 0
145 -132 146 0
145 132 -146 0
-146 -133 147 0
-146 133 -147 0
146 -133 -147 0
146 133 147 0
-147 -134 -148 0
-147 134 -148 0
147 -134 148 0
147 134 148 0
-148 -135 149 0
-148 135 149 0
148 -135 -149 0
148 135 149 0
-149 -136 150 0
-149 136 150 0
149 -136 -150 0
149 136 150 0
-150 -137 -151 0
-150 137 -151 0
150 -137 -151 0
150 137 151 0
-151 -138 152 0
-151 138 -152 0
151 -138 -152 0
151 138 152 0
-152 -139 153 0
-152 139 153 0
152 -139 -153 0
152 139 -153 0
-153 -140 -759 154 0
-153 -140 759 -154 0
-153 140 -760 154 0
-153 140 760 -154 0
153 -140 -761 154 0
153 -140 761 -154 0
153 140 -762 154 0
153 140 762 -154 0
-141 -763 155 0
-141 763 -155 0
141 -764 155 0
141 764 -155 0
-155 -142 -156 0
-155 142 -156 0
155 -142 -156 0
155 142 156 0
-156 -143 -157 0
-156 143 -157 0
156 -143 -157 0
156 143 157 0
-157 -144 -158 0
-157 144 -158 0
157 -144 158 0
157 144 -158 0
-158 -145 -777 159 0
-158 -145 777 -159 0
-158 145 -778 159 0
-158 145 778 -159 0
158 -145 -779 159 0
158 -145 779 -159 0
158 145 -780 159 0
158 145 780 -159 0
-159 -146 -781 160 0
-159 -146 781 -160 0
-159 146 -782 160 0
-159 146 782 -160 0
159 -146 -783 160 0
159 -146 783 -160 0
159 146 -784 160 0
159 146 784 -160 0
-160 -147 -161 0
-160 147 -161 0
160 -147 161 0
160 147 -161 0
-161 -148 162 0
-161 148 -162 0
161 -148 -162 0
161 148 162 0
-162 -149 -163 0
-162 149 -163 0
162 -149 163 0
162 149 163 0
-163 -150 164 0
-163 150 -164 0
163 -150 164 0
163 150 164 0
-164 -151 -801 165 0
-164 -151 801 -165 0
-164 151 -802 165 0
-164 151 802 -165 0
164 -151 -803 165 0
164 -151 803 -165 0
164 151 -804 165 0
164 151 804 -165 0
-165 -152 -805 166 0
-165 -152 805 -166 0
-165 152 -806 166 0
-165 152 806 -166 0
165 -152 -807 166 0
165 -152 807 -166 0
165 152 -808 166 0
165 152 808 -166 0
-166 -153 167 0
-166 153 167 0
166 -153 -167 0
166 153 167 0
-167 -154 168 0
-167 154 -168 0
167 -154 -168 0
167 154 168 0
-155 -169 0
155 169 0
-169 -156 -819 170 0
-169 -156 819 -170 0
-169 156 -820 170 0
-169 156 820 -170 0
169 -156 -821 170 0
169 -156 821 -170 0
169 156 -822 170 0
169 156 822 -170 0
-170 -157 -823 171 0
-170 -157 823 -171 0
-170 157 -824 171 0
-170 157 824 -171 0
170 -157 -825 171 0
170 -157 825 -171 0
170 157 -826 171 0
170 157 826 -171 0
-171 -158 172 0
-171 158 -172 0
171 -158 172 0
171 158 172 0
-172 -159 -173 0
-172 159 173 0
172 -159 173 0
172 159 173 0
-173 -160 -174 0
-173 160 -174 0
173 -160 -174 0
173 160 174 0
-174 -161 -175 0
-174 161 175 0
174 -161 -175 0
174 161 175 0
-175 -162 176 0
-175 162 176 0
175 -162 -176 0
175 162 -176 0
-176 -163 -177 0
-176 163 177 0
176 -163 177 0
176 163 -177 0
-177 -164 178 0
-177 164 178 0
177 -164 178 0
177 164 -178 0
-178 -165 -179 0
-178 165 -179 0
178 -165 -179 0
178 165 179 0
-179 -166 -859 180 0
-179 -166 859 -180 0
-179 166 -860 180 0
-179 166 860 -180 0
179 -166 -861 180 0
179 -166 861 -180 0
179 166 -862 180 0
179 166 862 -180 0
-180 -167 181 0
-180 167 -181 0
180 -167 181 0
180 167 -181 0
-181 -168 -182 0
-181 168 182 0
181 -168 182 0
181 168 -182 0
-169 -183 0
169 183 0
-183 -170 184 0
-183 170 -184 0
183 -170 -184 0
183 170 -184 0
-184 -171 185 0
-184 171 -185 0
184 -171 185 0
184 171 185 0
-185 -172 186 0
-185 172 186 0
185 -172 186 0
185 172 -186 0
-186 -173 -885 187 0
-186 -173 885 -187 0
-186 173 -886 187 0
-186 173 886 -187 0
186 -173 -887 187 0
186 -173 887 -187 0
186 173 -888 187 0
186 173 888 -187 0
-187 -174 -889 188 0
-187 -174 889 -188 0
-187 174 -890 188 0
-187 174 890 -188 0
187 -174 -891 188 0
187 -174 891 -188 0
187 174 -892 188 0
187 174 892 -188 0
-188 -175 189 0
-188 175 -189 0
188 -175 -189 0
188 175 189 0
-189 -176 -897 190 0
-189 -176 897 -190 0
-189 176 -898 190 0
-189 176 898 -190 0
189 -176 -899 190 0
189 -176 899 -190 0
189 176 -900 190 0
189 176 900 -190 0
-190 -177 191 0
-190 177 191 0
190 -177 -191 0
190 177 -191 0
-191 -178 -905 192 0
-191 -178 905 -192 0
-191 178 -906 192 0
-191 178 906 -192 0
191 -178 -907 192 0
191 -178 907 -192 0
191 178 -908 192 0
191 178 908 -192 0
-192 -179 -909 193 0
-192 -179 909 -193 0
-192 179 -910 193 0
-192 179 910 -193 0
192 -179 -911 193 0
192 -179 911 -193 0
192 179 -912 193 0
192 179 912 -193 0
-193 -180 194 0
-193 180 194 0
193 -180 -194 0
193 180 194 0
-194 -181 -195 0
-194 181 -195 0
194 -181 195 0
194 181 -195 0
-195 -182 -921 196 0
-195 -182 921 -196 0
-195 182 -922 196 0
-195 182 922 -196 0
195 -182 -923 196 0
195 -182 923 -196 0
195 182 -924 196 0
195 182 924 -196 0
196 0
