data/benchmarks/bayes/75-14-5-q.gr
p tw 924 1013
67 68
177 190
26 268
99 100
26 39
136 149
187 887
59 73
159 160
170 825
8 9
118 131
40 41
77 90
45 394
27 269
100 101
179 910
151 802
132 133
92 106
192 193
21 302
41 42
57 386
151 164
73 74
110 123
94 533
190 897
33 47
133 134
49 409
51 64
125 139
139 702
166 805
74 75
95 534
106 107
143 156
66 80
115 610
9 211
105 575
159 784
15 16
104 619
166 167
47 48
76 511
125 651
158 172
179 860
7 21
6 205
107 108
26 272
187 891
170 820
99 113
19 242
48 49
180 861
80 81
40 54
81 482
118 620
124 700
20 243
132 146
81 82
25 38
73 87
173 174
22 23
165 179
59 445
14 28
114 115
182 924
68 484
159 779
106 120
55 56
108 584
193 911
26 267
47 61
147 148
187 886
123 694
73 446
139 153
169 819
45 393
151 801
80 94
1 197
21 301
57 385
74 456
165 803
172 186
94 532
181 182
130 720
173 187
84 97
63 410
176 189
105 574
159 783
24 311
196 921
158 171
179 859
117 130
140 760
107 583
90 512
21 22
19 241
58 71
147 161
186 885
180 860
29 282
113 114
150 163
189 899
118 619
12 220
124 699
178 908
92 576
132 145
54 55
91 104
165 807
138 701
25 266
146 147
190 900
158 777
32 45
65 469
165 178
87 88
166 808
124 137
68 483
159 778
41 377
106 119
179 180
65 78
61 453
114 608
88 89
157 826
120 121
193 910
157 170
6 19
123 693
180 181
73 445
29 30
139 152
61 62
98 111
21 35
45 392
121 122
153 154
80 93
2 3
113 127
39 52
59 394
62 63
172 185
165 802
94 95
131 144
54 68
13 27
3 4
35 36
146 160
72 85
105 119
130 719
95 96
127 128
164 177
63 409
87 101
35 301
187 188
46 60
159 782
36 37
68 69
179 193
174 892
28 42
128 129
140 759
160 161
107 582
90 511
120 134
144 720
79 93
69 70
101 102
169 822
29 281
61 75
137 699
161 162
189 898
20 34
10 11
153 167
92 575
146 784
2 16
102 103
165 806
138 700
25 265
192 909
94 108
194 195
53 67
43 44
35 49
135 136
106 576
68 482
127 141
38 51
89 514
62 408
86 100
76 77
24 314
114 607
196 924
82 484
157 825
68 82
193 909
27 41
160 174
186 888
137 694
72 448
55 377
101 115
12 25
60 74
81 533
59 393
165 801
101 609
1 15
138 704
13 26
158 780
105 118
65 472
156 819
112 651
9 10
35 300
46 59
41 380
174 891
61 456
138 151
195 923
6 242
38 311
19 32
107 581
144 719
79 92
117 622
154 760
134 135
137 698
171 184
191 907
20 33
146 783
75 76
112 125
192 908
16 17
53 66
94 583
173 885
108 109
145 158
16 282
106 575
160 784
37 314
79 469
49 50
89 513
62 407
86 99
109 110
82 483
178 191
125 701
27 40
75 453
50 51
171 826
82 83
119 132
42 56
137 693
72 447
142 143
23 24
134 148
60 73
81 532
83 84
115 116
101 608
152 165
75 89
175 176
192 912
34 48
164 804
24 25
78 472
93 106
13 272
16 30
116 117
54 380
108 122
166 859
67 81
57 58
167 168
89 90
176 900
126 139
49 63
159 173
149 150
195 922
8 22
6 241
30 31
2 198
188 892
100 114
90 91
154 759
143 722
126 651
82 96
137 697
191 906
55 380
41 55
31 32
141 142
152 807
12 266
23 37
133 147
123 124
145 777
58 391
115 129
74 88
64 65
94 582
174 175
34 299
56 70
166 180
156 157
15 29
156 822
5 6
106 574
160 783
37 313
59 72
107 121
97 98
170 824
167 181
153 762
82 482
89 103
189 190
48 62
179 909
148 149
92 105
171 825
30 44
140 154
30 282
72 446
33 46
81 95
136 696
141 155
49 408
125 138
139 701
101 607
22 36
122 123
95 533
34 47
164 803
66 79
78 471
115 609
114 128
174 188
7 20
54 379
55 69
26 271
67 80
187 890
170 819
176 899
159 172
8 21
40 53
27 272
81 481
2 197
63 64
75 456
100 113
148 162
20 242
188 891
143 721
191 905
4 5
41 54
73 86
152 806
12 265
133 146
181 195
14 27
182 923
37 38
74 87
122 136
104 622
166 179
76 514
125 654
108 583
26 266
47 60
160 782
37 312
187 885
107 120
170 823
130 131
167 180
153 761
11 12
48 61
140 153
30 281
21 300
74 455
163 164
126 654
94 531
44 45
81 94
136 695
49 407
173 186
145 780
22 35
59 448
95 532
155 156
78 470
115 608
105 573
114 127
137 138
174 187
96 97
18 19
54 378
55 68
26 270
88 102
188 189
187 889
147 160
176 898
180 194
170 171
180 859
29 43
129 130
27 271
12 219
151 804
121 135
124 698
111 112
178 907
148 161
20 241
143 720
62 76
162 163
190 899
13 220
154 168
144 145
3 17
181 194
103 104
139 704
166 807
182 922
5 206
95 109
85 86
159 777
122 135
195 196
155 169
177 178
36 50
76 513
108 582
125 653
26 265
136 137
179 862
96 110
128 142
118 119
77 78
19 244
21 34
45 391
69 83
169 170
141 764
81 484
118 622
129 143
161 175
151 152
10 24
21 299
74 454
110 111
54 67
102 116
51 52
162 176
146 159
43 57
143 144
59 447
103 117
63 408
87 100
135 149
159 781
179 192
8 212
28 41
76 90
26 269
88 101
136 150
120 133
123 696
168 182
73 448
180 193
169 821
29 280
61 74
77 91
189 897
151 803
121 134
124 697
169 183
153 166
7 8
92 574
178 906
2 15
165 805
25 26
138 699
62 75
110 124
94 534
94 107
190 898
154 167
3 16
51 65
35 48
130 722
166 806
5 205
95 108
17 18
68 481
143 157
196 923
9 23
24 313
36 49
179 861
157 824
68 81
140 762
128 141
90 514
160 173
186 887
19 243
69 82
101 114
141 763
118 621
161 174
59 392
10 23
138 703
25 268
102 115
158 779
65 471
176 177
63 407
35 299
135 148
159 780
41 379
17 31
117 118
174 890
61 455
8 211
114 610
76 89
109 123
193 912
58 59
123 695
168 181
73 447
117 621
191 192
50 64
169 820
150 151
29 279
142 156
178 905
91 92
92 573
146 782
1 198
165 804
83 97
138 698
183 184
192 907
32 33
175 189
165 166
24 38
124 125
130 721
84 98
16 281
116 130
112 654
65 66
89 512
176 190
196 922
9 22
24 312
57 71
157 158
157 823
6 7
117 131
38 314
140 761
139 140
107 584
90 513
144 722
149 163
186 886
58 72
42 55
90 104
190 191
39 40
150 164
134 147
189 900
182 196
81 531
172 173
31 45
59 391
131 132
155 764
91 105
75 88
165 808
123 137
138 702
25 267
192 911
72 73
158 778
13 271
16 29
32 46
64 78
65 470
164 165
173 888
124 138
108 121
156 170
79 472
5 19
41 378
17 30
62 410
65 79
49 62
61 454
97 111
114 609
174 889
195 921
109 122
125 704
157 171
6 20
117 620
50 63
98 112
82 95
137 696
55 379
142 155
39 53
23 36
146 781
83 96
138 697
131 145
115 128
192 906
94 581
175 188
24 37
72 86
56 69
156 821
16 280
106 573
38 39
116 129
164 178
112 653
166 862
35 302
89 511
82 481
89 102
6 244
38 313
149 162
71 72
144 721
171 824
30 43
63 77
154 762
72 445
90 103
12 13
137 700
4 18
182 195
104 105
31 44
155 763
13 14
58 394
123 136
45 46
164 802
192 910
105 106
37 51
13 270
34 302
64 77
173 887
46 47
156 169
78 79
79 471
5 18
38 52
62 409
70 84
138 139
97 110
19 20
130 144
125 703
179 912
43 386
11 25
75 455
79 80
188 890
117 619
71 85
171 172
20 21
137 695
55 378
52 53
163 177
152 805
12 26
44 58
81 534
104 118
101 610
192 905
53 54
45 59
145 146
104 621
26 27
137 151
156 820
16 279
160 781
37 311
86 87
18 32
112 652
166 861
170 822
78 92
178 179
153 760
27 28
138 152
195 924
6 243
170 184
38 312
19 33
119 120
171 823
30 280
63 76
111 125
154 761
126 653
60 61
171 185
191 908
136 694
4 17
52 66
12 268
152 153
1 2
112 126
145 779
144 158
58 393
95 531
164 801
93 94
78 469
115 607
94 584
37 50
13 269
85 99
34 301
185 186
173 886
145 159
54 377
177 191
26 40
79 470
187 888
176 897
170 826
70 83
186 187
118 132
130 143
178 192
27 270
125 702
179 911
43 385
11 24
75 454
188 889
143 719
119 133
151 165
163 176
13 219
44 57
49 410
139 703
104 117
152 166
182 921
45 58
9 212
105 576
93 107
193 194
104 620
76 512
125 652
108 581
137 150
59 60
6 206
96 109
18 31
166 860
187 892
170 821
78 91
126 140
153 759
180 862
170 183
92 93
81 483
129 142
30 279
20 244
74 453
111 124
184 185
33 34
126 652
25 39
136 693
125 126
152 808
52 65
162 175
12 267
145 778
34 35
144 157
58 392
66 67
59 446
103 116
158 159
34 300
